Optimal - objective value -709.00000000
      0 x_0                      0                       0
      1 x_1                      0                      39
      2 x_2                      1                       0
      3 x_3                      0                      46
      4 x_4                      0                      79
      5 x_5                      1                    -109
      6 x_6                      0                     -11
      7 x_7                      0                     -39
      8 x_8                      0                      -1
      9 x_9                      0                      67
     10 x_10                     0                      59
     11 x_11                     0                       0
     12 x_12                     0                       0
     13 x_13                     0                     -63
     14 x_14                     0                    -135
     15 x_15                     0                       0
     16 x_16                     1                       0
     17 x_17                     0                       0
     18 x_18                     0                     -17
     19 x_19                     1                     -46
     20 x_20                     0                       0
     21 x_21                     0                      58
     22 x_22                     0                     101
     23 x_23                     1                     -18
     24 x_24                     0                     119
     25 x_25                     0                      84
     26 x_26                     0                      35
     27 x_27                     0                     -12
     28 x_28                     0                      76
     29 x_29                     1                     -64
     30 x_30                     0                     133
     31 x_31                     0                      96
     32 x_32                     1                    -104
     33 x_33                     0                      79
     34 x_34                     0                      66
